
Log started (V11.0.0) Mon Apr 14 06:33:02 2008

Tried aggregator 1 time.
Reduced MIP has 530 rows, 15001 columns, and 30030 nonzeros.
Presolve time =    0.14 sec.
Clique table members: 500.
MIP emphasis: balance optimality and feasibility.
MIP search method: dynamic search.
Parallel mode: none, using 1 thread.
Root relaxation solution time =    0.44 sec.

        Nodes                                         Cuts/
   Node  Left     Objective  IInf  Best Integer     Best Node    ItCnt     Gap

*     0+    0                        25611.0000       62.4601      982   99.76%
*     0+    0                           70.0000       62.4601      982   10.77%
      0     0       63.0000    53       70.0000      Fract: 8     1031   10.00%
*     0+    0                           69.0000       63.0000     1031    8.70%
*     0+    0                           68.0000       63.0000     1031    7.35%

Repeating presolve.
Tried aggregator 1 time.
MIP Presolve eliminated 0 rows and 5009 columns.
Reduced MIP has 530 rows, 9992 columns, and 20012 nonzeros.
Tried aggregator 1 time.
Represolve time =    0.41 sec.
Clique table members: 844.
MIP emphasis: balance optimality and feasibility.
MIP search method: dynamic search.
Parallel mode: none, using 1 thread.
Root relaxation solution time =    0.28 sec.

        Nodes                                         Cuts/
   Node  Left     Objective  IInf  Best Integer     Best Node    ItCnt     Gap

      0     0       63.0000    60       68.0000       63.0000      925    7.35%
      0     2       63.0000    60       68.0000       63.0000      925    7.35%
*    10+   10                           67.0000       63.0000     1566    5.97%
*    90+   69                           66.0000       63.0000     6397    4.55%
    100    79       64.0000    43       66.0000       63.0000     6964    4.55%
    200   132       65.0000    43       66.0000       63.0000    20527    4.55%
*   300+   98                           65.0000       63.0000    35069    3.08%
    300   100       63.0000    52       65.0000       63.0000    35069    3.08%
    400   176       63.0000    58       65.0000       63.0000    41140    3.08%
    500   265       64.0000    36       65.0000       63.0000    45251    3.08%
    600   269    infeasible             65.0000       63.0000    56739    3.08%
    700   254       64.0000    46       65.0000       63.0000    67836    3.08%
    800   241       63.0000    59       65.0000       63.0000    77726    3.08%
*   804+   91                           64.0000       63.0000    78152    1.56%
    900   109       63.0000    53       64.0000       63.0000    91066    1.56%
   1000   169       63.0000    96       64.0000       63.0000   106452    1.56%
Elapsed time =  86.20 sec. (tree size =  1.92 MB, solutions = 8)
   1100   216       63.0000    96       64.0000       63.0000   132126    1.56%
   1200   246       63.0000   104       64.0000       63.0000   172059    1.56%
   1300   288       63.0000   119       64.0000       63.0000   206133    1.56%
   1400   296    infeasible             64.0000       63.0000   267587    1.56%
   1500   352       63.0000   147       64.0000       63.0000   302251    1.56%
   1600   406    infeasible             64.0000       63.0000   340591    1.56%
   1700   432    infeasible             64.0000       63.0000   394884    1.56%
   1800   434       63.0000   168       64.0000       63.0000   477869    1.56%
   1900   488    infeasible             64.0000       63.0000   520677    1.56%
   2000   528       63.0000   183       64.0000       63.0000   575052    1.56%
Elapsed time = 467.38 sec. (tree size =  9.84 MB, solutions = 8)
   2100   568    infeasible             64.0000       63.0000   631268    1.56%
   2200   556    infeasible             64.0000       63.0000   734544    1.56%
   2300   576       63.0000   170       64.0000       63.0000   795991    1.56%
   2400   592    infeasible             64.0000       63.0000   879906    1.56%
   2500   608    infeasible             64.0000       63.0000   962787    1.56%
   2600   664       63.0000   183       64.0000       63.0000  1011457    1.56%
   2700   650       63.0000   204       64.0000       63.0000  1122881    1.56%
   2800   644       63.0000   231       64.0000       63.0000  1218449    1.56%
   2900   686    infeasible             64.0000       63.0000  1273757    1.56%
   3000   722       63.0000   213       64.0000       63.0000  1339414    1.56%
Elapsed time = 1294.84 sec. (tree size = 17.70 MB, solutions = 8)
   3100   750       63.0000   214       64.0000       63.0000  1407553    1.56%
   3200   768       63.0000   221       64.0000       63.0000  1479973    1.56%
   3300   772    infeasible             64.0000       63.0000  1562144    1.56%
   3400   790       63.0000   175       64.0000       63.0000  1633670    1.56%
   3500   798       63.0000   204       64.0000       63.0000  1723367    1.56%
   3600   796    infeasible             64.0000       63.0000  1810975    1.56%
   3700   800       63.0000   207       64.0000       63.0000  1904576    1.56%
   3800   824       63.0000   161       64.0000       63.0000  1971865    1.56%
   3900   846    infeasible             64.0000       63.0000  2040212    1.56%
   4000   876    infeasible             64.0000       63.0000  2097512    1.56%
Elapsed time = 2275.16 sec. (tree size = 24.87 MB, solutions = 8)
   4100   910       63.0000   210       64.0000       63.0000  2159364    1.56%
   4200   908    infeasible             64.0000       63.0000  2239163    1.56%
   4300   916       63.0000   239       64.0000       63.0000  2326997    1.56%
   4400   918    infeasible             64.0000       63.0000  2424964    1.56%
   4500   954       63.0000   213       64.0000       63.0000  2482393    1.56%
   4600   978       63.0000   251       64.0000       63.0000  2559602    1.56%
   4700   980       63.0000   239       64.0000       63.0000  2648629    1.56%
   4800   978       63.0000   193       64.0000       63.0000  2742303    1.56%
   4900   972    infeasible             64.0000       63.0000  2835873    1.56%
   5000   968       63.0000   203       64.0000       63.0000  2931333    1.56%
Elapsed time = 3473.45 sec. (tree size = 30.32 MB, solutions = 8)
   5100   960       63.0000   225       64.0000       63.0000  3038190    1.56%
   5200   970       63.0000   251       64.0000       63.0000  3115945    1.56%
   5300   956       63.0000   211       64.0000       63.0000  3207872    1.56%
   5400   956    infeasible             64.0000       63.0000  3290885    1.56%
   5500   960       63.0000   232       64.0000       63.0000  3373135    1.56%
   5600   936    infeasible             64.0000       63.0000  3484533    1.56%
   5700   926       63.0000   256       64.0000       63.0000  3585112    1.56%
   5800   916    infeasible             64.0000       63.0000  3673966    1.56%
   5900   902    infeasible             64.0000       63.0000  3772741    1.56%
   6000   898       63.0000   239       64.0000       63.0000  3861316    1.56%
Elapsed time = 4936.02 sec. (tree size = 30.63 MB, solutions = 8)
   6100   880    infeasible             64.0000       63.0000  3950341    1.56%
   6200   874    infeasible             64.0000       63.0000  4042718    1.56%
   6300   870       63.0000   265       64.0000       63.0000  4129084    1.56%
   6400   864       63.0000   183       64.0000       63.0000  4220824    1.56%
   6500   882    infeasible             64.0000       63.0000  4294005    1.56%
   6600   868    infeasible             64.0000       63.0000  4377463    1.56%
   6700   866       63.0000   205       64.0000       63.0000  4462139    1.56%
   6800   882    infeasible             64.0000       63.0000  4537551    1.56%
   6900   870    infeasible             64.0000       63.0000  4628007    1.56%
   7000   878    infeasible             64.0000       63.0000  4695244    1.56%
Elapsed time = 6257.50 sec. (tree size = 31.10 MB, solutions = 8)
   7100   876       63.0000   219       64.0000       63.0000  4753827    1.56%
   7200   878    infeasible             64.0000       63.0000  4840598    1.56%
   7300   864    infeasible             64.0000       63.0000  4927122    1.56%
   7400   864    infeasible             64.0000       63.0000  5021064    1.56%
   7500   838       63.0000   224       64.0000       63.0000  5114253    1.56%
   7600   834    infeasible             64.0000       63.0000  5193276    1.56%
   7700   834       63.0000   200       64.0000       63.0000  5266857    1.56%

Cover cuts applied:  2645
Gomory fractional cuts applied:  5

Solution pool: 8 solutions saved.

MIP - Time limit exceeded, integer feasible:  Objective = 6.4000000000e+001
Current MIP best bound = 6.3000000000e+001 (gap = 1, 1.56%)
Solution time = 7200.05 sec.  Iterations = 5304820  Nodes = 7734 (823)


Incumbent solution
Variable Name           Solution Value
Cmax                         64.000000
X_1_26                        1.000000
X_2_28                        1.000000
X_3_18                        1.000000
X_4_24                        1.000000
X_5_5                         1.000000
X_6_16                        1.000000
X_7_18                        1.000000
X_8_8                         1.000000
X_9_27                        1.000000
X_10_29                       1.000000
X_11_9                        1.000000
X_12_5                        1.000000
X_13_20                       1.000000
X_14_6                        1.000000
X_15_22                       1.000000
X_16_12                       1.000000
X_17_21                       1.000000
X_18_19                       1.000000
X_19_17                       1.000000
X_20_2                        1.000000
X_21_14                       1.000000
X_22_8                        1.000000
X_23_20                       1.000000
X_24_29                       1.000000
X_25_12                       1.000000
X_26_24                       1.000000
X_27_5                        1.000000
X_28_14                       1.000000
X_29_28                       1.000000
X_30_29                       1.000000
X_31_28                       1.000000
X_32_25                       1.000000
X_33_20                       1.000000
X_34_24                       1.000000
X_35_20                       1.000000
X_36_4                        1.000000
X_37_25                       1.000000
X_38_13                       1.000000
X_39_15                       1.000000
X_40_5                        1.000000
X_41_7                        1.000000
X_42_5                        1.000000
X_43_15                       1.000000
X_44_26                       1.000000
X_45_5                        1.000000
X_46_14                       1.000000
X_47_20                       1.000000
X_48_23                       1.000000
X_49_5                        1.000000
X_50_15                       1.000000
X_51_11                       1.000000
X_52_20                       1.000000
X_53_3                        1.000000
X_54_22                       1.000000
X_55_7                        1.000000
X_56_4                        1.000000
X_57_29                       1.000000
X_58_17                       1.000000
X_59_13                       1.000000
X_60_30                       1.000000
X_61_7                        1.000000
X_62_18                       1.000000
X_63_25                       1.000000
X_64_9                        1.000000
X_65_7                        1.000000
X_66_27                       1.000000
X_67_16                       1.000000
X_68_17                       1.000000
X_69_1                        1.000000
X_70_4                        1.000000
X_71_16                       1.000000
X_72_25                       1.000000
X_73_14                       1.000000
X_74_6                        1.000000
X_75_15                       1.000000
X_76_22                       1.000000
X_77_18                       1.000000
X_78_18                       1.000000
X_79_22                       1.000000
X_80_27                       1.000000
X_81_2                        1.000000
X_82_11                       1.000000
X_83_4                        1.000000
X_84_17                       1.000000
X_85_28                       1.000000
X_86_9                        1.000000
X_87_17                       1.000000
X_88_14                       1.000000
X_89_17                       1.000000
X_90_13                       1.000000
X_91_17                       1.000000
X_92_22                       1.000000
X_93_19                       1.000000
X_94_10                       1.000000
X_95_16                       1.000000
X_96_6                        1.000000
X_97_8                        1.000000
X_98_20                       1.000000
X_99_15                       1.000000
X_100_15                      1.000000
X_101_1                       1.000000
X_102_4                       1.000000
X_103_5                       1.000000
X_104_22                      1.000000
X_105_20                      1.000000
X_106_14                      1.000000
X_107_4                       1.000000
X_108_25                      1.000000
X_109_15                      1.000000
X_110_11                      1.000000
X_111_2                       1.000000
X_112_7                       1.000000
X_113_2                       1.000000
X_114_29                      1.000000
X_115_30                      1.000000
X_116_18                      1.000000
X_117_13                      1.000000
X_118_2                       1.000000
X_119_5                       1.000000
X_120_22                      1.000000
X_121_26                      1.000000
X_122_17                      1.000000
X_123_16                      1.000000
X_124_9                       1.000000
X_125_27                      1.000000
X_126_2                       1.000000
X_127_13                      1.000000
X_128_10                      1.000000
X_129_27                      1.000000
X_130_7                       1.000000
X_131_18                      1.000000
X_132_12                      1.000000
X_133_26                      1.000000
X_134_13                      1.000000
X_135_28                      1.000000
X_136_20                      1.000000
X_137_11                      1.000000
X_138_23                      1.000000
X_139_16                      1.000000
X_140_1                       1.000000
X_141_13                      1.000000
X_142_4                       1.000000
X_143_22                      1.000000
X_144_23                      1.000000
X_145_25                      1.000000
X_146_11                      1.000000
X_147_24                      1.000000
X_148_24                      1.000000
X_149_28                      1.000000
X_150_24                      1.000000
X_151_17                      1.000000
X_152_4                       1.000000
X_153_4                       1.000000
X_154_30                      1.000000
X_155_16                      1.000000
X_156_28                      1.000000
X_157_24                      1.000000
X_158_27                      1.000000
X_159_3                       1.000000
X_160_11                      1.000000
X_161_22                      1.000000
X_162_14                      1.000000
X_163_29                      1.000000
X_164_13                      1.000000
X_165_16                      1.000000
X_166_18                      1.000000
X_167_3                       1.000000
X_168_20                      1.000000
X_169_19                      1.000000
X_170_13                      1.000000
X_171_9                       1.000000
X_172_16                      1.000000
X_173_26                      1.000000
X_174_26                      1.000000
X_175_3                       1.000000
X_176_18                      1.000000
X_177_19                      1.000000
X_178_27                      1.000000
X_179_4                       1.000000
X_180_19                      1.000000
X_181_30                      1.000000
X_182_28                      1.000000
X_183_30                      1.000000
X_184_7                       1.000000
X_185_15                      1.000000
X_186_29                      1.000000
X_187_8                       1.000000
X_188_9                       1.000000
X_189_23                      1.000000
X_190_27                      1.000000
X_191_14                      1.000000
X_192_20                      1.000000
X_193_28                      1.000000
X_194_22                      1.000000
X_195_27                      1.000000
X_196_27                      1.000000
X_197_22                      1.000000
X_198_13                      1.000000
X_199_17                      1.000000
X_200_7                       1.000000
X_201_30                      1.000000
X_202_26                      1.000000
X_203_22                      1.000000
X_204_7                       1.000000
X_205_13                      1.000000
X_206_5                       1.000000
X_207_1                       1.000000
X_208_16                      1.000000
X_209_9                       1.000000
X_210_13                      1.000000
X_211_12                      1.000000
X_212_8                       1.000000
X_213_6                       1.000000
X_214_18                      1.000000
X_215_14                      1.000000
X_216_7                       1.000000
X_217_3                       1.000000
X_218_16                      1.000000
X_219_8                       1.000000
X_220_21                      1.000000
X_221_18                      1.000000
X_222_20                      1.000000
X_223_15                      1.000000
X_224_3                       1.000000
X_225_3                       1.000000
X_226_6                       1.000000
X_227_12                      1.000000
X_228_3                       1.000000
X_229_26                      1.000000
X_230_25                      1.000000
X_231_25                      1.000000
X_232_9                       1.000000
X_233_26                      1.000000
X_234_21                      1.000000
X_235_17                      1.000000
X_236_5                       1.000000
X_237_14                      1.000000
X_238_11                      1.000000
X_239_29                      1.000000
X_240_2                       1.000000
X_241_29                      1.000000
X_242_2                       1.000000
X_243_1                       1.000000
X_244_4                       1.000000
X_245_2                       1.000000
X_246_7                       1.000000
X_247_11                      1.000000
X_248_29                      1.000000
X_249_7                       1.000000
X_250_21                      1.000000
X_251_5                       1.000000
X_252_17                      1.000000
X_253_1                       1.000000
X_254_7                       1.000000
X_255_23                      1.000000
X_256_4                       1.000000
X_257_11                      1.000000
X_258_11                      1.000000
X_259_1                       1.000000
X_260_25                      1.000000
X_261_9                       1.000000
X_262_13                      1.000000
X_263_10                      1.000000
X_264_1                       1.000000
X_265_8                       1.000000
X_266_26                      1.000000
X_267_1                       1.000000
X_268_23                      1.000000
X_269_2                       1.000000
X_270_16                      1.000000
X_271_22                      1.000000
X_272_14                      1.000000
X_273_21                      1.000000
X_274_8                       1.000000
X_275_21                      1.000000
X_276_25                      1.000000
X_277_25                      1.000000
X_278_18                      1.000000
X_279_5                       1.000000
X_280_2                       1.000000
X_281_7                       1.000000
X_282_12                      1.000000
X_283_2                       1.000000
X_284_16                      1.000000
X_285_9                       1.000000
X_286_13                      1.000000
X_287_2                       1.000000
X_288_6                       1.000000
X_289_3                       1.000000
X_290_17                      1.000000
X_291_24                      1.000000
X_292_28                      1.000000
X_293_8                       1.000000
X_294_17                      1.000000
X_295_30                      1.000000
X_296_1                       1.000000
X_297_12                      1.000000
X_298_26                      1.000000
X_299_23                      1.000000
X_300_19                      1.000000
X_301_9                       1.000000
X_302_1                       1.000000
X_303_4                       1.000000
X_304_8                       1.000000
X_305_6                       1.000000
X_306_17                      1.000000
X_307_3                       1.000000
X_308_8                       1.000000
X_309_4                       1.000000
X_310_19                      1.000000
X_311_6                       1.000000
X_312_17                      1.000000
X_313_20                      1.000000
X_314_26                      1.000000
X_315_23                      1.000000
X_316_5                       1.000000
X_317_21                      1.000000
X_318_25                      1.000000
X_319_20                      1.000000
X_320_26                      1.000000
X_321_29                      1.000000
X_322_19                      1.000000
X_323_3                       1.000000
X_324_3                       1.000000
X_325_6                       1.000000
X_326_5                       1.000000
X_327_12                      1.000000
X_328_10                      1.000000
X_329_1                       1.000000
X_330_29                      1.000000
X_331_6                       1.000000
X_332_22                      1.000000
X_333_25                      1.000000
X_334_8                       1.000000
X_335_20                      1.000000
X_336_30                      1.000000
X_337_24                      1.000000
X_338_30                      1.000000
X_339_16                      1.000000
X_340_17                      1.000000
X_341_24                      1.000000
X_342_10                      1.000000
X_343_19                      1.000000
X_344_21                      1.000000
X_345_21                      1.000000
X_346_9                       1.000000
X_347_29                      1.000000
X_348_4                       1.000000
X_349_29                      1.000000
X_350_16                      1.000000
X_351_20                      1.000000
X_352_30                      1.000000
X_353_6                       1.000000
X_354_8                       1.000000
X_355_6                       1.000000
X_356_10                      1.000000
X_357_17                      1.000000
X_358_21                      1.000000
X_359_9                       1.000000
X_360_7                       1.000000
X_361_28                      1.000000
X_362_5                       1.000000
X_363_1                       1.000000
X_364_19                      1.000000
X_365_9                       1.000000
X_366_29                      1.000000
X_367_18                      1.000000
X_368_18                      1.000000
X_369_10                      1.000000
X_370_20                      1.000000
X_371_5                       1.000000
X_372_2                       1.000000
X_373_29                      1.000000
X_374_18                      1.000000
X_375_24                      1.000000
X_376_5                       1.000000
X_377_30                      1.000000
X_378_7                       1.000000
X_379_12                      1.000000
X_380_3                       1.000000
X_381_19                      1.000000
X_382_29                      1.000000
X_383_10                      1.000000
X_384_8                       1.000000
X_385_10                      1.000000
X_386_16                      1.000000
X_387_22                      1.000000
X_388_12                      1.000000
X_389_30                      1.000000
X_390_18                      1.000000
X_391_17                      1.000000
X_392_14                      1.000000
X_393_30                      1.000000
X_394_19                      1.000000
X_395_10                      1.000000
X_396_23                      1.000000
X_397_18                      1.000000
X_398_14                      1.000000
X_399_9                       1.000000
X_400_2                       1.000000
X_401_12                      1.000000
X_402_22                      1.000000
X_403_28                      1.000000
X_404_10                      1.000000
X_405_1                       1.000000
X_406_8                       1.000000
X_407_10                      1.000000
X_408_28                      1.000000
X_409_28                      1.000000
X_410_28                      1.000000
X_411_2                       1.000000
X_412_9                       1.000000
X_413_15                      1.000000
X_414_13                      1.000000
X_415_23                      1.000000
X_416_26                      1.000000
X_417_18                      1.000000
X_418_18                      1.000000
X_419_27                      1.000000
X_420_27                      1.000000
X_421_18                      1.000000
X_422_12                      1.000000
X_423_6                       1.000000
X_424_21                      1.000000
X_425_28                      1.000000
X_426_7                       1.000000
X_427_22                      1.000000
X_428_24                      1.000000
X_429_26                      1.000000
X_430_10                      1.000000
X_431_16                      1.000000
X_432_3                       1.000000
X_433_16                      1.000000
X_434_11                      1.000000
X_435_7                       1.000000
X_436_8                       1.000000
X_437_15                      1.000000
X_438_20                      1.000000
X_439_11                      1.000000
X_440_2                       1.000000
X_441_26                      1.000000
X_442_16                      1.000000
X_443_20                      1.000000
X_444_19                      1.000000
X_445_4                       1.000000
X_446_28                      1.000000
X_447_16                      1.000000
X_448_6                       1.000000
X_449_18                      1.000000
X_450_30                      1.000000
X_451_7                       1.000000
X_452_4                       1.000000
X_453_11                      1.000000
X_454_26                      1.000000
X_455_1                       1.000000
X_456_24                      1.000000
X_457_6                       1.000000
X_458_13                      1.000000
X_459_26                      1.000000
X_460_26                      1.000000
X_461_2                       1.000000
X_462_9                       1.000000
X_463_17                      1.000000
X_464_18                      1.000000
X_465_4                       1.000000
X_466_2                       1.000000
X_467_11                      1.000000
X_468_27                      1.000000
X_469_10                      1.000000
X_470_24                      1.000000
X_471_23                      1.000000
X_472_14                      1.000000
X_473_27                      1.000000
X_474_15                      1.000000
X_475_19                      1.000000
X_476_17                      1.000000
X_477_17                      1.000000
X_478_21                      1.000000
X_479_23                      1.000000
X_480_30                      1.000000
X_481_25                      1.000000
X_482_30                      1.000000
X_483_1                       1.000000
X_484_3                       1.000000
X_485_2                       1.000000
X_486_22                      1.000000
X_487_24                      1.000000
X_488_25                      1.000000
X_489_7                       1.000000
X_490_5                       1.000000
X_491_12                      1.000000
X_492_27                      1.000000
X_493_8                       1.000000
X_494_25                      1.000000
X_495_24                      1.000000
X_496_30                      1.000000
X_497_25                      1.000000
X_498_2                       1.000000
X_499_30                      1.000000
X_500_21                      1.000000
All other variables in the range 1-15001 are 0.
